10J3M/DAT/10J3MNTA-9.dat
10 3
32.4903 1055.6196
28.0447 786.5052
23.7695 564.9891
13.0356 169.9269
23.338 544.6622
32.0351 1026.2476
27.9359 780.4145
19.5056 380.4684
19.5688 382.9379
24.1401 582.7444
1568.629