10J3M/SOL/10J3MNTA-9.sol
solution status: optimal solution found
objective value:                     70.4730288362049
x#1#2                                               1 	(obj:0)
x#2#1                               0.982140691908055 	(obj:0)
x#2#2                               0.017859308091945 	(obj:0)
x#3#2                               0.164179796609553 	(obj:0)
x#3#3                               0.835820203390447 	(obj:0)
x#4#1                                               1 	(obj:0)
x#6#2                               0.293948523257845 	(obj:0)
x#6#3                               0.706051476742155 	(obj:0)
x#7#3                                               1 	(obj:0)
x#8#1                               0.731959596476474 	(obj:0)
x#8#2                               0.268040403523526 	(obj:0)
x#9#3                               0.287623526650397 	(obj:0)
x#10#2                                              1 	(obj:0)
z                                    70.4730288362049 	(obj:1)
